C101

VEHICLE
NUMBER     CAPACITY
  6         200

CUSTOMER
CUST NO.  XCOORD.   YCOORD.    DEMAND   READY TIME  DUE DATE   SERVICE   TIME
 
    0      40         50          0          0       3390          0   
    1      52         75         10        311        471         90   
    2      45         70         30        213        373         90   
    3      62         69         10       1167       1327         90   
    4      60         66         10       1261       1421         90   
    5      42         65         10         25        185         90   
    6      16         42         20        497        657         90   